        units real
        atom_style full
        pair_style lj/cut/coul/long 10.35
        bond_style harmonic
        angle_style harmonic
        kspace_style ewald 0.0001
        pair_modify tail yes
